(set-info :smt-lib-version 2.6)
(set-logic QF_BV)
(set-info :source |
 Patrice Godefroid, SAGE (systematic dynamic test generation)
 For more information: http://research.microsoft.com/en-us/um/people/pg/public_psfiles/ndss2008.pdf
|)
(set-info :category "industrial")
(set-info :status sat)
(declare-fun T4_10859 () (_ BitVec 32))
(declare-fun T4_6551 () (_ BitVec 32))
(declare-fun T1_10859 () (_ BitVec 8))
(declare-fun T1_10860 () (_ BitVec 8))
(declare-fun T1_10861 () (_ BitVec 8))
(declare-fun T1_10862 () (_ BitVec 8))
(declare-fun T1_6551 () (_ BitVec 8))
(declare-fun T1_6552 () (_ BitVec 8))
(declare-fun T1_6553 () (_ BitVec 8))
(declare-fun T1_6554 () (_ BitVec 8))
(assert (let ((?v_5 (bvsub T4_10859 (_ bv1031 32)))) (let ((?v_7 (bvsub T4_10859 ?v_5))) (let ((?v_8 (bvadd ?v_7 (_ bv143508952 32))) (?v_6 (bvult (_ bv0 32) T4_10859)) (?v_4 (bvadd T4_10859 (_ bv143508694 32))) (?v_3 (bvsub T4_10859 (_ bv1024 32))) (?v_2 (bvsub (_ bv0 32) ((_ zero_extend 24) (ite (bvult T4_10859 (_ bv0 32)) (_ bv1 8) (_ bv0 8)))))) (let ((?v_1 (bvule ?v_2 (_ bv0 32))) (?v_0 (bvashr T4_10859 ((_ zero_extend 24) (_ bv5 8))))) (and true (= T4_6551 (bvor (bvshl (bvor (bvshl (bvor (bvshl ((_ zero_extend 24) T1_6554) (_ bv8 32)) ((_ zero_extend 24) T1_6553)) (_ bv8 32)) ((_ zero_extend 24) T1_6552)) (_ bv8 32)) ((_ zero_extend 24) T1_6551))) (= T4_10859 (bvor (bvshl (bvor (bvshl (bvor (bvshl ((_ zero_extend 24) T1_10862) (_ bv8 32)) ((_ zero_extend 24) T1_10861)) (_ bv8 32)) ((_ zero_extend 24) T1_10860)) (_ bv8 32)) ((_ zero_extend 24) T1_10859))) (bvslt (_ bv4294967295 32) (bvsub (_ bv143509983 32) ?v_8)) (= (bvsub (bvashr ?v_3 ((_ zero_extend 24) (_ bv2 8))) (_ bv1 32)) (_ bv0 32)) (= (bvsub ?v_0 (_ bv32 32)) (_ bv0 32)) (not (= (bvsub ?v_0 (_ bv31 32)) (_ bv0 32))) ?v_1 ?v_1 (bvule (_ bv0 32) ?v_2) (not (= (bvsub T4_10859 (_ bv1028 32)) (_ bv0 32))) (bvule (_ bv4 32) ?v_3) (not (= (bvsub T4_10859 (_ bv1030 32)) (_ bv0 32))) (not (= (bvsub T4_10859 (_ bv1029 32)) (_ bv0 32))) (not (= (bvsub T4_10859 (_ bv1022 32)) (_ bv0 32))) (bvult (bvsub T4_10859 (_ bv774 32)) (_ bv258 32)) (bvule ?v_4 (_ bv143509725 32)) (bvult (_ bv143509724 32) ?v_4) (not (= T4_6551 (_ bv4294967295 32))) (= ?v_5 (_ bv0 32)) (bvule (_ bv32 32) T4_10859) (bvule (_ bv258 32) T4_10859) ?v_6 ?v_6 (bvule T4_10859 (_ bv2048 32)) (not (= (_ bv0 32) T4_10859)) (bvule (_ bv0 32) T4_10859) (= T4_6551 T4_10859) (not (= T4_10859 (_ bv0 32))) (not (= ?v_7 (_ bv0 32))) (bvult (_ bv0 32) ?v_7) (not (= ?v_7 (_ bv2048 32))) (= ?v_7 T4_10859) (= (_ bv143509983 32) ?v_8)))))))
(check-sat)
(exit)
